enter Q
Maximize

19 dSta_0 + 1 d0_1 + 1 d0_4 + 35 d1_2 + 1 d2_3 + 35 d2_2 + 6 d3_6 + 19 d4_5 + 6 d5_6 + 19 d5_5 + 1 d6_7 + 1 d6_10 + 35 d7_8 + 1 d8_9 + 35 d8_8 + 5 d9_12 + 19 d10_11 + 5 d11_12 + 19 d11_11 + 3 d12_21 + 3 d13_24 + 1 d14_27 + 4 d15_32 + 17 d16_37 + 6 d17_41 + 3 d18_44 + 24 d19_46 + 17 d21_22 + 1 d22_23 + 17 d22_22 + 6 d23_13 + 21 d24_25 + 4 d25_26 + 21 d25_25 + 5 d26_14 + 3 d27_28 + 17 d28_29 + 7 d29_30 + 17 d29_29 + 1 d30_31 + 3 d30_28 + 4 d31_15 + 6 d32_33 + 35 d33_34 + 11 d34_35 + 35 d34_34 + 2 d35_36 + 6 d35_33 + 5 d36_16 + 3 d37_38 + 6 d37_40 + 24 d38_39 + 6 d39_40 + 24 d39_39 + 6 d40_17 + 40 d41_42 + 3 d42_43 + 40 d42_42 + 17 d43_18 + 3 d44_45 + 3 d44_44 + 3 d45_19 + 18 d46_47 + 2 d47_48 + 39 d48_49 + 232 d49_50 + 39 d49_49 + 10 d50_51 + 1 d50_48 + 20 d51_52 + 17 d51_47 + 11 d52_20


Subject to


\ === tcfg constraints ===
dSta_0 = 1
b0 - d0_1 - d0_4 = 0
b0 - dSta_0 = 0
b1 - d1_2 = 0
b1 - d0_1 = 0
b2 - d2_3 - d2_2 = 0
b2 - d1_2 - d2_2 = 0
b3 - d3_6 = 0
b3 - d2_3 = 0
b4 - d4_5 = 0
b4 - d0_4 = 0
b5 - d5_6 - d5_5 = 0
b5 - d4_5 - d5_5 = 0
b6 - d6_7 - d6_10 = 0
b6 - d3_6 - d5_6 = 0
b7 - d7_8 = 0
b7 - d6_7 = 0
b8 - d8_9 - d8_8 = 0
b8 - d7_8 - d8_8 = 0
b9 - d9_12 = 0
b9 - d8_9 = 0
b10 - d10_11 = 0
b10 - d6_10 = 0
b11 - d11_12 - d11_11 = 0
b11 - d10_11 - d11_11 = 0
b12 - d12_21 = 0
b12 - d9_12 - d11_12 = 0
b13 - d13_24 = 0
b13 - d23_13 = 0
b14 - d14_27 = 0
b14 - d26_14 = 0
b15 - d15_32 = 0
b15 - d31_15 = 0
b16 - d16_37 = 0
b16 - d36_16 = 0
b17 - d17_41 = 0
b17 - d40_17 = 0
b18 - d18_44 = 0
b18 - d43_18 = 0
b19 - d19_46 = 0
b19 - d45_19 = 0
b20 - d52_20 = 0
b21 - d21_22 = 0
b21 - d12_21 = 0
b22 - d22_23 - d22_22 = 0
b22 - d21_22 - d22_22 = 0
b23 - d23_13 = 0
b23 - d22_23 = 0
b24 - d24_25 = 0
b24 - d13_24 = 0
b25 - d25_26 - d25_25 = 0
b25 - d24_25 - d25_25 = 0
b26 - d26_14 = 0
b26 - d25_26 = 0
b27 - d27_28 = 0
b27 - d14_27 = 0
b28 - d28_29 = 0
b28 - d27_28 - d30_28 = 0
b29 - d29_30 - d29_29 = 0
b29 - d28_29 - d29_29 = 0
b30 - d30_31 - d30_28 = 0
b30 - d29_30 = 0
b31 - d31_15 = 0
b31 - d30_31 = 0
b32 - d32_33 = 0
b32 - d15_32 = 0
b33 - d33_34 = 0
b33 - d32_33 - d35_33 = 0
b34 - d34_35 - d34_34 = 0
b34 - d33_34 - d34_34 = 0
b35 - d35_36 - d35_33 = 0
b35 - d34_35 = 0
b36 - d36_16 = 0
b36 - d35_36 = 0
b37 - d37_38 - d37_40 = 0
b37 - d16_37 = 0
b38 - d38_39 = 0
b38 - d37_38 = 0
b39 - d39_40 - d39_39 = 0
b39 - d38_39 - d39_39 = 0
b40 - d40_17 = 0
b40 - d37_40 - d39_40 = 0
b41 - d41_42 = 0
b41 - d17_41 = 0
b42 - d42_43 - d42_42 = 0
b42 - d41_42 - d42_42 = 0
b43 - d43_18 = 0
b43 - d42_43 = 0
b44 - d44_45 - d44_44 = 0
b44 - d18_44 - d44_44 = 0
b45 - d45_19 = 0
b45 - d44_45 = 0
b46 - d46_47 = 0
b46 - d19_46 = 0
b47 - d47_48 = 0
b47 - d46_47 - d51_47 = 0
b48 - d48_49 = 0
b48 - d47_48 - d50_48 = 0
b49 - d49_50 - d49_49 = 0
b49 - d48_49 - d49_49 = 0
b50 - d50_51 - d50_48 = 0
b50 - d49_50 = 0
b51 - d51_52 - d51_47 = 0
b51 - d50_51 = 0
b52 - d52_20 = 0
b52 - d51_52 = 0


\ === infeasible path constraints ===

b21 = 1
b22 = 150
b23 = 1
b24 = 1
b25 = 150
b26 = 1
b27 = 1
b28 = 50
b29 = 2500
b30 = 50
b31 = 1
b32 = 1
b33 = 50
b34 = 800
b35 = 50
b36 = 1
b37 = 1
b38 = 1
b39 = 99
b40 = 1
b41 = 1
b42 = 50
b43 = 1
b44 = 17
b45 = 1
b46 = 1
b47 = 2
b48 = 16
b49 = 64
b50 = 16
b51 = 2
b52 = 1
b0 = 1
b1 = 0
b2 = 0
b3 = 0
b4 = 1
b5 = 25
b6 = 1
b7 = 0
b8 = 0
b9 = 0
b10 = 1
b11 = 25
b12 = 1
b13 = 1
b14 = 1
b15 = 1
b16 = 1
b17 = 1
b18 = 1
b19 = 1
b20 = 1

Generals

Sta
b0
d0_1
d0_4
b1
d1_2
b2
d2_3
d2_2
b3
d3_6
b4
d4_5
b5
d5_6
d5_5
b6
d6_7
d6_10
b7
d7_8
b8
d8_9
d8_8
b9
d9_12
b10
d10_11
b11
d11_12
d11_11
b12
d12_21
b13
d13_24
b14
d14_27
b15
d15_32
b16
d16_37
b17
d17_41
b18
d18_44
b19
d19_46
b20
b21
d21_22
b22
d22_23
d22_22
b23
d23_13
b24
d24_25
b25
d25_26
d25_25
b26
d26_14
b27
d27_28
b28
d28_29
b29
d29_30
d29_29
b30
d30_31
d30_28
b31
d31_15
b32
d32_33
b33
d33_34
b34
d34_35
d34_34
b35
d35_36
d35_33
b36
d36_16
b37
d37_38
d37_40
b38
d38_39
b39
d39_40
d39_39
b40
d40_17
b41
d41_42
b42
d42_43
d42_42
b43
d43_18
b44
d44_45
d44_44
b45
d45_19
b46
d46_47
b47
d47_48
b48
d48_49
b49
d49_50
d49_49
b50
d50_51
d50_48
b51
d51_52
d51_47
b52
d52_20

End
\ total_cons: 159 	total_vars: 125
optimize
set logfile /ubc/ece/home/courses/eece494/chronos/benchmarks/edn/edn.sol
display solution objective
display solution variables -
quit
